n_res = 4;
rc = [ 20, 13, 10, 17 ];
n_tasks = 30;
d = [ 10, 5, 2, 3, 5, 1, 8, 5, 9, 8, 3, 5, 10, 4, 3, 7, 2, 10, 7, 10, 4, 3, 9, 10, 8, 10, 1, 6, 3, 10 ];
rr = [| 0, 0, 3, 0, 8, 0, 0, 0, 8, 4, 4, 0, 0, 0, 9, 0, 0, 6, 0, 1, 0, 10, 0, 0, 2, 0, 0, 0, 0, 2
      | 0, 8, 0, 0, 0, 0, 0, 0, 0, 0, 0, 0, 5, 0, 0, 9, 0, 0, 0, 0, 8, 0, 2, 0, 0, 0, 8, 0, 0, 0
      | 0, 0, 0, 0, 0, 10, 0, 0, 0, 0, 0, 0, 0, 2, 0, 0, 1, 0, 3, 0, 0, 0, 0, 3, 0, 0, 0, 0, 0, 0
      | 8, 0, 0, 6, 0, 0, 7, 9, 0, 0, 0, 9, 0, 0, 0, 0, 0, 0, 0, 0, 0, 0, 0, 0, 0, 2, 0, 5, 9, 0 |];
suc = [ { 2 }, 
        { 3 }, 
        { 4 }, 
        { 5 }, 
        { 6 }, 
        { 7 }, 
        { 8 }, 
        { 9 }, 
        { 10 }, 
        { 11 }, 
        { 12 }, 
        { 13 }, 
        { 14 }, 
        { 15 }, 
        { 16 }, 
        { 17 }, 
        { 18 }, 
        { 19 }, 
        { 20 }, 
        { 21 }, 
        { 22 }, 
        { 23 }, 
        { 24 }, 
        { 25 }, 
        { 26 }, 
        { 27 }, 
        { 28 }, 
        { 29 }, 
        { 30 }, 
        {  }]; 
